* ENCODING=ISO-8859-1
NAME          CPLEX
ROWS
 N  obj1    
 G  c1      
 G  c2      
 G  c3      
 G  c4      
 G  c5      
 G  c6      
 G  c7      
 G  c8      
 G  c9      
 G  c10     
 G  c11     
 G  c12     
 G  c13     
 G  c14     
 G  c15     
 G  c16     
 G  c17     
 G  c18     
 G  c19     
 G  c20     
 G  c21     
 G  c22     
 G  c23     
 G  c24     
 G  c25     
 G  c26     
 G  c27     
 G  c28     
 G  c29     
 G  c30     
 G  c31     
 G  c32     
 G  c33     
 G  c34     
 G  c35     
 G  c36     
 G  c37     
 G  c38     
 G  c39     
 G  c40     
 G  c41     
 G  c42     
 G  c43     
 G  c44     
 G  c45     
 G  c46     
 G  c47     
 G  c48     
 G  c49     
 G  c50     
 G  c51     
 G  c52     
 G  c53     
 G  c54     
 G  c55     
 G  c56     
 G  c57     
 G  c58     
 G  c59     
 G  c60     
 G  c61     
 G  c62     
 G  c63     
 G  c64     
 G  c65     
 G  c66     
 G  c67     
 G  c68     
 G  c69     
 G  c70     
COLUMNS
    MARK0000  'MARKER'                 'INTORG'
    x1        obj1                            1
    x1        c10                           437
    x1        c17                           452
    x1        c22                           976
    x2        obj1                            1
    x2        c11                           706
    x2        c22                           460
    x2        c38                           160
    x2        c43                           930
    x2        c52                           652
    x2        c56                           775
    x3        obj1                            1
    x3        c17                           339
    x3        c41                           360
    x3        c63                           481
    x3        c68                           740
    x3        c70                           708
    x4        obj1                            1
    x4        c7                            605
    x4        c9                            392
    x4        c14                           551
    x4        c18                           318
    x4        c24                           975
    x4        c31                           510
    x4        c42                           208
    x4        c47                           360
    x4        c52                           649
    x5        obj1                            1
    x5        c6                            711
    x5        c16                           176
    x5        c17                           143
    x5        c26                           422
    x5        c32                           215
    x5        c35                           289
    x5        c44                           247
    x5        c49                           760
    x6        obj1                            1
    x6        c14                           542
    x6        c35                           600
    x6        c39                           108
    x6        c55                           522
    x7        obj1                            1
    x7        c5                            121
    x7        c6                            477
    x7        c7                            231
    x7        c48                           521
    x7        c54                           854
    x8        obj1                            1
    x8        c2                            473
    x8        c15                           726
    x8        c16                           235
    x8        c26                           703
    x8        c40                           847
    x8        c47                           908
    x9        obj1                            1
    x9        c13                           345
    x9        c28                           207
    x9        c34                           973
    x9        c40                           731
    x9        c42                           746
    x9        c44                           366
    x9        c45                           797
    x9        c64                           752
    x9        c66                           494
    x10       obj1                            1
    x10       c4                            916
    x10       c30                           335
    x10       c34                           557
    x10       c37                           752
    x10       c56                           725
    x10       c57                           752
    x11       obj1                            1
    x11       c13                           772
    x11       c24                           822
    x11       c25                           603
    x11       c27                           932
    x11       c28                           703
    x11       c48                           768
    x11       c51                           819
    x11       c64                           812
    x12       obj1                            1
    x12       c23                           962
    x12       c31                           801
    x12       c48                           782
    x12       c52                           410
    x12       c58                           947
    x12       c59                           715
    x12       c66                           365
    x12       c70                           584
    x13       obj1                            1
    x13       c4                            539
    x13       c28                           510
    x13       c32                           675
    x13       c34                           304
    x13       c37                           244
    x13       c50                           581
    x13       c67                           646
    x13       c70                           532
    x14       obj1                            1
    x14       c5                            552
    x14       c10                           165
    x14       c26                           198
    x14       c28                           628
    x14       c48                           231
    x14       c59                           112
    x15       obj1                            1
    x15       c12                           692
    x15       c27                           605
    x15       c38                           211
    x15       c43                           973
    x15       c46                           843
    x15       c53                           251
    x15       c59                           538
    x15       c68                           469
    x16       obj1                            1
    x16       c1                            737
    x16       c3                            750
    x16       c15                           694
    x16       c20                           181
    x16       c32                           232
    x16       c34                           166
    x16       c46                           884
    x16       c57                           910
    x16       c59                           684
    x16       c65                           781
    x17       obj1                            1
    x17       c18                           938
    x17       c20                           244
    x17       c28                           523
    x18       obj1                            1
    x18       c3                            280
    x18       c8                            214
    x18       c22                           889
    x19       obj1                            1
    x19       c17                           415
    x19       c37                           387
    x20       obj1                            1
    x20       c4                            507
    x20       c10                           573
    x20       c29                           175
    x20       c32                           744
    x20       c36                           529
    x20       c37                           985
    x20       c38                           132
    x20       c54                           519
    x20       c63                           262
    x21       obj1                            1
    x21       c17                           752
    x21       c19                           700
    x21       c20                           376
    x21       c23                           778
    x21       c25                           555
    x21       c38                           807
    x21       c51                           989
    x21       c64                           829
    x22       obj1                            1
    x22       c6                            167
    x23       obj1                            1
    x23       c4                            562
    x23       c18                           427
    x23       c38                           685
    x23       c49                           631
    x23       c51                           973
    x23       c54                           710
    x23       c56                           543
    x23       c58                           484
    x23       c61                           295
    x24       obj1                            1
    x24       c9                            539
    x24       c27                           322
    x24       c31                           409
    x24       c41                           793
    x24       c42                           988
    x24       c56                           991
    x24       c57                           914
    x24       c66                           874
    x25       obj1                            1
    x25       c28                           109
    x25       c33                           851
    x25       c56                           450
    x25       c63                           677
    x26       obj1                            1
    x26       c20                           181
    x26       c30                           813
    x26       c41                           205
    x26       c48                           942
    x26       c53                           971
    x26       c63                           153
    x27       obj1                            1
    x27       c12                           882
    x27       c21                           409
    x27       c22                           285
    x27       c24                           210
    x27       c38                           613
    x27       c55                           898
    x28       obj1                            1
    x28       c6                            468
    x28       c17                           283
    x28       c20                           998
    x28       c41                           328
    x28       c70                           894
    x29       obj1                            1
    x29       c1                            806
    x29       c14                           592
    x29       c16                           454
    x29       c30                           356
    x29       c36                           814
    x29       c41                           909
    x29       c42                           625
    x29       c56                           944
    x29       c59                           427
    x29       c60                           604
    x29       c65                           715
    x29       c67                           928
    x29       c68                           559
    x30       obj1                            1
    x30       c22                           226
    x30       c23                           325
    x30       c38                           370
    x30       c40                           969
    x30       c41                           397
    x30       c46                           763
    x30       c54                           784
    x30       c62                           262
    x30       c66                           437
    x31       obj1                            1
    x31       c12                           693
    x31       c46                           679
    x32       obj1                            1
    x32       c24                           589
    x32       c37                           322
    x32       c49                           577
    x32       c54                           820
    x32       c57                           752
    x32       c63                           739
    x33       obj1                            1
    x33       c4                            345
    x33       c5                            241
    x33       c13                           806
    x33       c46                           369
    x33       c49                           490
    x33       c66                           204
    x34       obj1                            1
    x34       c2                            611
    x34       c14                           801
    x34       c35                           364
    x34       c38                           183
    x34       c47                           365
    x34       c57                           583
    x34       c60                           162
    x34       c69                           831
    x35       obj1                            1
    x35       c17                           248
    x35       c52                           669
    x35       c70                           867
    x36       obj1                            1
    x36       c15                           962
    x36       c21                           464
    x36       c26                           996
    x36       c31                           792
    x36       c44                           385
    x37       obj1                            1
    x37       c9                            219
    x37       c22                           993
    x37       c25                           369
    x37       c30                           343
    x37       c33                           545
    x37       c54                           315
    x37       c69                           759
    x38       obj1                            1
    x38       c2                            721
    x38       c29                           830
    x38       c41                           245
    x38       c51                           388
    x38       c52                           862
    x38       c64                           738
    x38       c66                           598
    x39       obj1                            1
    x39       c3                            976
    x39       c7                            818
    x39       c36                           942
    x39       c39                           683
    x39       c46                           513
    x39       c52                           113
    x39       c65                           719
    x39       c69                           960
    x40       obj1                            1
    x40       c3                            863
    x40       c4                            891
    x40       c34                           500
    x40       c49                           454
    x40       c50                           587
    x40       c58                           773
    x40       c59                           880
    x40       c62                           529
    x41       obj1                            1
    x41       c17                           417
    x41       c39                           264
    x41       c50                           716
    x41       c51                           879
    x41       c60                           227
    x41       c64                           686
    x41       c67                           711
    x41       c69                           329
    x42       obj1                            1
    x42       c5                            609
    x42       c7                            306
    x42       c37                           243
    x42       c53                           812
    x42       c64                           909
    x42       c70                           963
    x43       obj1                            1
    x43       c12                           469
    x43       c14                           384
    x43       c21                           119
    x43       c37                           195
    x43       c39                           314
    x43       c43                           971
    x43       c48                           113
    x43       c49                           494
    x43       c59                           853
    x43       c61                           256
    x44       obj1                            1
    x44       c32                           897
    x44       c35                           518
    x44       c43                           400
    x44       c53                           397
    x44       c58                           987
    x45       obj1                            1
    x45       c8                            646
    x45       c15                           673
    x45       c18                           811
    x45       c24                           454
    x45       c41                           554
    x45       c44                           778
    x45       c47                           404
    x45       c56                           819
    x45       c57                           732
    x45       c60                           806
    x45       c61                           744
    x46       obj1                            1
    x46       c4                            254
    x46       c5                            937
    x46       c7                            142
    x46       c20                           641
    x46       c21                           581
    x46       c36                           186
    x46       c43                           947
    x46       c52                           455
    x46       c59                           674
    x47       obj1                            1
    x47       c6                            328
    x47       c10                           881
    x47       c12                           323
    x47       c15                           979
    x47       c20                           548
    x47       c36                           437
    x47       c37                           845
    x47       c41                           495
    x47       c56                           554
    x47       c66                           914
    x48       obj1                            1
    x48       c19                           228
    x48       c32                           972
    x48       c35                           493
    x48       c58                           737
    x48       c63                           614
    x49       obj1                            1
    x49       c13                           306
    x49       c19                           104
    x49       c26                           998
    x49       c28                           618
    x49       c30                           529
    x49       c32                           940
    x49       c47                           863
    x49       c51                           344
    x49       c62                           100
    x50       obj1                            1
    x50       c10                           649
    x50       c14                           991
    x50       c34                           655
    x50       c44                           169
    x50       c46                           711
    x50       c63                           110
    x50       c67                           233
    x51       obj1                            1
    x51       c4                            878
    x51       c6                            911
    x51       c42                           242
    x52       obj1                            1
    x52       c11                           270
    x52       c34                           533
    x52       c37                           650
    x52       c46                           839
    x52       c54                           947
    x52       c55                           245
    x53       obj1                            1
    x53       c15                           911
    x53       c25                           806
    x53       c31                           175
    x53       c44                           394
    x53       c46                           185
    x53       c49                           363
    x53       c54                           808
    x53       c62                           135
    x53       c66                           810
    x54       obj1                            1
    x54       c4                            997
    x54       c8                            506
    x54       c9                            233
    x54       c16                           727
    x54       c22                           454
    x54       c25                           320
    x54       c26                           969
    x54       c49                           750
    x54       c59                           951
    x54       c63                           694
    x54       c69                           216
    x55       obj1                            1
    x55       c24                           711
    x55       c34                           688
    x55       c46                           158
    x56       obj1                            1
    x56       c2                            270
    x56       c7                            856
    x56       c13                           654
    x56       c23                           977
    x56       c24                           617
    x56       c45                           614
    x56       c50                           947
    x56       c55                           812
    x56       c57                           262
    x56       c61                           661
    x56       c62                           299
    x57       obj1                            1
    x57       c1                            148
    x57       c11                           147
    x57       c24                           976
    x57       c29                           146
    x57       c34                           469
    x57       c38                           486
    x57       c40                           525
    x57       c49                           809
    x57       c50                           629
    x57       c58                           625
    x57       c70                           727
    x58       obj1                            1
    x58       c11                           109
    x58       c22                           579
    x58       c32                           221
    x58       c37                           262
    x58       c53                           927
    x58       c56                           699
    x58       c58                           470
    x59       obj1                            1
    x59       c2                            733
    x59       c5                            120
    x59       c9                            221
    x59       c12                           485
    x59       c13                           527
    x59       c33                           997
    x59       c47                           899
    x59       c51                           467
    x59       c65                           545
    x59       c66                           814
    x59       c69                           226
    x60       obj1                            1
    x60       c19                           357
    x60       c63                           967
    x60       c69                           363
    x61       obj1                            1
    x61       c32                           914
    x61       c39                           646
    x61       c70                           166
    x62       obj1                            1
    x62       c20                           571
    x62       c47                           320
    x62       c53                           144
    x62       c62                           437
    x63       obj1                            1
    x63       c12                           381
    x63       c14                           825
    x63       c24                           799
    x63       c26                           988
    x63       c38                           196
    x63       c53                           575
    x63       c57                           802
    x63       c66                           919
    x64       obj1                            1
    x64       c1                            316
    x64       c6                            573
    x64       c15                           128
    x64       c29                           254
    x64       c31                           795
    x64       c36                           787
    x64       c44                           970
    x64       c47                           704
    x64       c56                           624
    x64       c57                           164
    x64       c59                           949
    x64       c61                           256
    x64       c62                           133
    x65       obj1                            1
    x65       c26                           824
    x65       c33                           100
    x65       c47                           177
    x65       c49                           560
    x65       c68                           590
    x66       obj1                            1
    x66       c58                           679
    x66       c67                           894
    x66       c70                           581
    x67       obj1                            1
    x67       c8                            440
    x67       c13                           371
    x67       c14                           807
    x67       c25                           348
    x67       c30                           435
    x67       c33                           450
    x67       c45                           449
    x68       obj1                            1
    x68       c2                            864
    x68       c28                           122
    x68       c31                           559
    x68       c43                           127
    x68       c45                           957
    x68       c51                           816
    x69       obj1                            1
    x69       c14                           248
    x69       c15                           201
    x69       c33                           978
    x69       c45                           696
    x69       c54                           966
    x69       c64                           867
    x69       c69                           269
    x70       obj1                            1
    x70       c12                           279
    x70       c13                           820
    x70       c25                           797
    x70       c27                           142
    x70       c30                           704
    x70       c32                           736
    x70       c43                           185
    x70       c48                           519
    x70       c58                           953
    x70       c63                           563
    x70       c69                           448
    x70       c70                           873
    MARK0001  'MARKER'                 'INTEND'
RHS
    rhs       c1                           1004
    rhs       c2                           1836
    rhs       c3                           1435
    rhs       c4                           2945
    rhs       c5                           1290
    rhs       c6                           1818
    rhs       c7                           1479
    rhs       c8                            903
    rhs       c9                            802
    rhs       c10                          1353
    rhs       c11                           616
    rhs       c12                          2102
    rhs       c13                          2301
    rhs       c14                          2871
    rhs       c15                          2637
    rhs       c16                           796
    rhs       c17                          1525
    rhs       c18                          1247
    rhs       c19                           695
    rhs       c20                          1870
    rhs       c21                           787
    rhs       c22                          2431
    rhs       c23                          1521
    rhs       c24                          3077
    rhs       c25                          1899
    rhs       c26                          3049
    rhs       c27                          1001
    rhs       c28                          1710
    rhs       c29                           703
    rhs       c30                          1758
    rhs       c31                          2021
    rhs       c32                          3273
    rhs       c33                          1961
    rhs       c34                          2423
    rhs       c35                          1132
    rhs       c36                          1848
    rhs       c37                          2443
    rhs       c38                          1922
    rhs       c39                          1008
    rhs       c40                          1536
    rhs       c41                          2143
    rhs       c42                          1405
    rhs       c43                          2267
    rhs       c44                          1655
    rhs       c45                          1757
    rhs       c46                          2972
    rhs       c47                          2500
    rhs       c48                          1938
    rhs       c49                          2944
    rhs       c50                          1730
    rhs       c51                          2838
    rhs       c52                          1905
    rhs       c53                          2039
    rhs       c54                          3362
    rhs       c55                          1239
    rhs       c56                          3562
    rhs       c57                          2936
    rhs       c58                          3328
    rhs       c59                          3392
    rhs       c60                           900
    rhs       c61                          1106
    rhs       c62                           948
    rhs       c63                          2630
    rhs       c64                          2797
    rhs       c65                          1380
    rhs       c66                          3215
    rhs       c67                          1706
    rhs       c68                          1179
    rhs       c69                          2201
    rhs       c70                          3448
BOUNDS
 LI bnd       x1        0
 LI bnd       x2        0
 LI bnd       x3        0
 LI bnd       x4        0
 LI bnd       x5        0
 LI bnd       x6        0
 LI bnd       x7        0
 LI bnd       x8        0
 LI bnd       x9        0
 LI bnd       x10       0
 LI bnd       x11       0
 LI bnd       x12       0
 LI bnd       x13       0
 LI bnd       x14       0
 LI bnd       x15       0
 LI bnd       x16       0
 LI bnd       x17       0
 LI bnd       x18       0
 LI bnd       x19       0
 LI bnd       x20       0
 LI bnd       x21       0
 LI bnd       x22       0
 LI bnd       x23       0
 LI bnd       x24       0
 LI bnd       x25       0
 LI bnd       x26       0
 LI bnd       x27       0
 LI bnd       x28       0
 LI bnd       x29       0
 LI bnd       x30       0
 LI bnd       x31       0
 LI bnd       x32       0
 LI bnd       x33       0
 LI bnd       x34       0
 LI bnd       x35       0
 LI bnd       x36       0
 LI bnd       x37       0
 LI bnd       x38       0
 LI bnd       x39       0
 LI bnd       x40       0
 LI bnd       x41       0
 LI bnd       x42       0
 LI bnd       x43       0
 LI bnd       x44       0
 LI bnd       x45       0
 LI bnd       x46       0
 LI bnd       x47       0
 LI bnd       x48       0
 LI bnd       x49       0
 LI bnd       x50       0
 LI bnd       x51       0
 LI bnd       x52       0
 LI bnd       x53       0
 LI bnd       x54       0
 LI bnd       x55       0
 LI bnd       x56       0
 LI bnd       x57       0
 LI bnd       x58       0
 LI bnd       x59       0
 LI bnd       x60       0
 LI bnd       x61       0
 LI bnd       x62       0
 LI bnd       x63       0
 LI bnd       x64       0
 LI bnd       x65       0
 LI bnd       x66       0
 LI bnd       x67       0
 LI bnd       x68       0
 LI bnd       x69       0
 LI bnd       x70       0
ENDATA
